Traveling Salesman Problem/TSP_generados/Aleatorio1621103278_7.tsp
NAME: Aleatorio1621103278_7.tsp
COMMENT: Randomly generated scenario
TYPE: TSP
DIMENSION: 7
EDGE_WEIGHT_TYPE: ATT
NODE_COORD_SECTION
1 15.68 32.03
2 38.22 16.63
3 24.38 7.75
4 28.0 37.57
5 45.68 7.18
6 5.85 21.38
7 13.47 34.06
