Traveling Salesman Problem/TSP_generados/Aleatorio1621103278_7.opt.tour
NAME: Aleatorio1621103278_7.opt.tour
COMMENT: Optimal solution for Aleatorio1621103278_7 (110.95380915639194)
TYPE: TOUR
DIMENSION: 7
TOUR_SECTION
1 7 6 3 5 2 4
-1
EOF
